p edge 640 2631
c 13018
e 0 634 15 0
e 0 416 1 1
e 0 617 1 2
e 0 527 2 3
e 0 14 1 4
e 0 81 1 5
e 0 365 41 6
e 0 419 1 7
e 1 585 2 12
e 1 331 1 16
e 2 192 1 19
e 2 604 12 20
e 2 455 43 21
e 3 519 1 23
e 3 62 1 24
e 3 282 2 25
e 3 190 1 26
e 3 194 1 27
e 3 537 1 29
e 3 586 2 30
e 4 569 1 33
e 4 115 1 34
e 4 76 44 35
e 4 397 1 40
e 4 543 1 42
e 5 431 1 43
e 5 627 1 44
e 5 182 1 45
e 5 329 3 47
e 5 422 1 48
e 5 506 1 49
e 5 575 44 50
e 6 404 1 52
e 6 381 2 53
e 6 108 20 56
e 7 594 1 61
e 7 490 1 62
e 7 118 2 63
e 7 391 1 64
e 7 279 1 66
e 7 629 1 67
e 8 192 2 68
e 8 486 2 69
e 8 20 1 70
e 8 269 2 71
e 8 159 1 73
e 8 210 2 74
e 8 271 1 75
e 9 293 1 76
e 9 144 1 77
e 9 473 18 78
e 9 114 1 79
e 9 209 2 80
e 9 227 2 81
e 9 301 1 83
e 9 404 1 84
e 10 92 1 86
e 10 151 45 88
e 10 146 1 90
e 10 269 1 91
e 11 155 1 92
e 11 381 1 95
e 11 33 1 96
e 11 151 33 97
e 11 190 2 98
e 12 384 1 100
e 12 568 2 101
e 12 633 1 103
e 12 118 1 104
e 12 556 1 105
e 13 257 1 109
e 13 27 2 110
e 13 51 33 111
e 13 62 2 112
e 13 152 1 114
e 13 236 24 115
e 13 361 1 117
e 14 231 1 118
e 14 17 1 119
e 14 466 1 120
e 15 344 1 123
e 15 125 42 125
e 15 232 1 128
e 15 332 24 129
e 15 571 1 130
e 16 74 1 134
e 16 174 2 136
e 16 24 46 137
e 17 438 1 139
e 17 526 1 140
e 17 383 3 142
e 17 132 1 143
e 17 578 1 146
e 18 288 2 147
e 18 203 1 148
e 18 43 1 149
e 18 449 1 150
e 18 45 27 151
e 18 60 1 152
e 18 216 24 153
e 18 478 1 156
e 18 626 1 157
e 19 169 1 158
e 19 610 46 159
e 19 161 1 160
e 19 35 1 162
e 19 187 2 163
e 19 191 34 164
e 20 357 1 166
e 20 287 1 167
e 20 159 1 168
e 20 559 2 169
e 21 515 1 170
e 21 92 1 172
e 21 88 1 174
e 22 161 2 176
e 22 632 1 177
e 22 247 1 179
e 22 401 1 180
e 22 550 1 181
e 23 512 48 182
e 23 546 46 183
e 23 559 36 184
e 23 55 34 185
e 23 34 7 186
e 23 253 35 187
e 23 561 10 190
e 24 561 30 191
e 24 610 1 193
e 24 191 14 194
e 24 47 21 195
e 24 391 10 196
e 24 406 29 197
e 24 526 32 198
e 25 111 1 199
e 25 312 2 200
e 25 172 1 201
e 25 541 3 202
e 25 124 1 203
e 26 196 49 206
e 26 509 3 207
e 27 136 1 210
e 27 431 1 211
e 27 61 2 212
e 27 117 1 214
e 27 426 1 215
e 27 553 1 216
e 27 577 1 218
e 28 477 1 220
e 28 125 40 221
e 28 65 1 223
e 28 124 2 224
e 29 57 1 228
e 29 338 1 229
e 29 511 1 230
e 29 541 1 232
e 29 546 1 233
e 29 586 1 234
e 30 325 4 236
e 30 280 1 239
e 31 521 2 241
e 31 311 2 242
e 31 352 1 243
e 31 127 1 244
e 31 448 2 246
e 31 597 1 247
e 32 156 32 249
e 32 154 2 251
e 32 566 2 252
e 33 198 1 253
e 33 623 2 254
e 33 625 1 255
e 33 323 2 257
e 33 433 2 258
e 33 453 1 259
e 33 516 1 260
e 33 584 2 261
e 34 193 1 262
e 34 361 1 264
e 34 143 7 265
e 34 314 1 266
e 34 567 1 267
e 35 510 1 270
e 35 456 1 273
e 35 603 1 275
e 36 146 1 276
e 36 466 1 278
e 36 74 1 279
e 36 271 1 280
e 37 421 29 282
e 37 571 1 289
e 38 209 1 290
e 38 404 1 291
e 39 374 1 295
e 39 592 1 297
e 39 269 1 300
e 39 483 1 302
e 40 397 3 304
e 40 317 26 305
e 40 464 1 310
e 40 594 1 311
e 41 410 2 312
e 41 285 1 313
e 41 375 2 314
e 41 149 1 315
e 41 205 2 316
e 42 288 2 319
e 42 393 16 321
e 42 184 1 322
e 42 473 17 326
e 43 407 21 329
e 43 68 1 333
e 44 438 1 335
e 44 154 1 337
e 44 423 1 340
e 45 573 9 343
e 45 460 46 344
e 45 300 6 345
e 45 610 45 350
e 46 505 45 352
e 46 124 2 353
e 46 76 1 355
e 46 114 1 356
e 46 156 33 357
e 46 525 9 360
e 47 638 29 361
e 47 272 21 362
e 47 238 22 363
e 47 243 11 364
e 47 595 7 365
e 47 436 37 366
e 47 151 19 367
e 47 49 27 368
e 47 104 47 369
e 48 480 1 370
e 48 203 1 371
e 48 610 2 372
e 48 633 1 373
e 48 72 1 374
e 48 87 2 375
e 48 175 1 377
e 48 274 1 378
e 48 392 1 379
e 49 115 23 381
e 49 129 1 382
e 49 503 16 383
e 49 76 43 384
e 49 106 12 385
e 49 108 20 386
e 49 109 10 387
e 49 262 36 388
e 50 427 1 389
e 50 542 1 392
e 50 218 1 393
e 50 231 3 394
e 51 511 48 395
e 51 361 22 396
e 51 611 8 397
e 51 236 14 398
e 51 290 19 399
e 51 487 40 400
e 51 539 3 402
e 51 588 34 403
e 52 236 36 407
e 52 121 1 408
e 52 215 1 409
e 52 336 33 410
e 52 352 2 411
e 52 496 1 412
e 52 516 1 413
e 53 345 1 417
e 53 417 2 420
e 53 418 13 421
e 53 463 39 422
e 54 456 1 426
e 54 481 1 428
e 54 401 1 429
e 54 363 3 430
e 54 461 1 431
e 55 346 1 432
e 55 154 1 433
e 55 308 16 435
e 55 589 1 437
e 56 353 11 438
e 56 284 1 439
e 56 443 1 441
e 56 66 1 442
e 56 70 1 443
e 56 288 1 444
e 57 494 1 446
e 57 378 1 447
e 57 601 3 448
e 57 325 16 449
e 57 439 1 450
e 57 511 1 451
e 58 74 1 452
e 58 400 1 453
e 58 596 6 454
e 58 128 2 455
e 58 396 1 456
e 58 544 1 457
e 59 465 1 459
e 59 544 1 460
e 59 356 1 461
e 59 452 3 462
e 59 62 1 463
e 59 126 1 465
e 59 367 1 466
e 59 422 1 467
e 59 506 2 468
e 59 529 2 469
e 60 234 1 470
e 60 331 1 471
e 60 542 1 472
e 61 414 1 475
e 61 235 1 477
e 61 601 2 478
e 61 519 1 482
e 62 564 1 483
e 62 342 2 484
e 62 158 1 485
e 62 204 1 486
e 62 540 2 488
e 63 310 1 489
e 63 116 2 491
e 63 293 2 492
e 63 171 1 493
e 63 277 1 494
e 63 370 1 495
e 65 221 2 502
e 65 70 1 503
e 65 278 2 506
e 65 381 2 507
e 65 600 3 509
e 66 122 5 510
e 66 163 33 514
e 66 273 1 515
e 66 344 1 516
e 66 541 2 518
e 68 398 1 522
e 68 467 1 524
e 68 206 1 525
e 68 301 1 526
e 68 435 1 527
e 68 570 1 528
e 69 618 1 529
e 69 475 2 530
e 69 284 1 531
e 69 80 2 533
e 69 99 1 534
e 69 152 1 535
e 69 254 1 536
e 69 502 2 537
e 70 599 35 539
e 70 356 1 540
e 70 246 1 541
e 70 355 14 542
e 70 499 1 543
e 71 106 28 548
e 72 536 1 550
e 72 306 1 553
e 72 373 1 554
e 73 225 1 555
e 73 388 1 556
e 73 260 1 557
e 73 91 1 558
e 73 109 1 559
e 73 361 1 560
e 74 189 2 562
e 74 537 1 563
e 74 259 1 564
e 74 598 2 565
e 74 129 2 566
e 75 299 1 569
e 75 97 1 570
e 75 256 1 571
e 75 181 1 572
e 75 218 1 573
e 75 388 1 575
e 75 425 1 576
e 76 333 28 577
e 76 336 36 578
e 76 100 48 579
e 76 183 34 580
e 76 263 6 581
e 76 312 32 582
e 76 624 35 583
e 77 297 29 584
e 77 522 1 586
e 77 220 1 587
e 77 112 1 588
e 77 355 29 589
e 77 383 1 590
e 77 461 1 591
e 78 227 1 593
e 78 497 1 594
e 78 132 2 595
e 78 115 2 596
e 78 428 2 597
e 78 472 1 598
e 79 152 1 600
e 79 281 17 601
e 79 81 2 603
e 79 378 1 606
e 80 296 1 608
e 80 574 2 609
e 80 535 2 610
e 80 208 1 611
e 80 262 1 612
e 81 97 1 614
e 81 383 1 615
e 82 531 1 617
e 82 155 2 618
e 82 469 2 619
e 82 144 2 622
e 82 275 1 623
e 82 451 2 624
e 82 573 1 625
e 82 584 1 626
e 83 253 1 629
e 83 154 2 630
e 83 386 1 632
e 84 138 48 635
e 84 374 1 641
e 85 603 1 645
e 85 419 1 646
e 85 387 1 647
e 85 287 2 648
e 85 394 1 649
e 85 562 1 650
e 85 606 1 652
e 86 260 2 653
e 86 360 2 654
e 86 540 1 657
e 87 206 2 658
e 87 210 1 659
e 87 425 2 660
e 87 198 1 662
e 87 235 2 663
e 87 257 1 664
e 87 300 1 665
e 87 434 1 666
e 87 443 3 667
e 87 581 2 668
e 88 237 2 669
e 88 579 2 671
e 88 159 1 672
e 88 256 1 673
e 88 408 1 674
e 88 509 19 675
e 89 492 2 682
e 90 582 1 688
e 90 271 1 689
e 90 541 1 692
e 91 595 22 693
e 91 585 2 696
e 91 167 2 698
e 91 320 11 699
e 91 471 1 700
e 92 485 48 701
e 92 330 2 702
e 92 237 1 703
e 92 341 1 704
e 92 299 1 705
e 92 359 1 707
e 92 405 1 708
e 92 512 1 709
e 92 530 2 710
e 92 584 1 711
e 93 613 1 712
e 93 550 1 717
e 94 596 39 722
e 94 104 9 723
e 94 356 23 724
e 94 389 11 725
e 94 624 32 727
e 95 437 1 729
e 95 357 2 730
e 95 142 1 731
e 95 188 1 732
e 95 265 2 733
e 95 330 1 734
e 95 530 1 735
e 96 430 1 742
e 96 483 2 743
e 97 347 2 747
e 97 271 2 748
e 98 423 1 751
e 99 397 1 755
e 99 216 42 756
e 99 319 1 757
e 100 342 1 760
e 100 115 1 761
e 100 255 1 762
e 100 140 2 763
e 100 529 2 765
e 100 542 1 766
e 100 561 1 767
e 100 588 1 768
e 101 407 33 769
e 101 121 1 770
e 101 128 1 773
e 101 504 1 777
e 102 620 1 780
e 102 365 15 781
e 102 418 26 782
e 102 108 41 783
e 102 436 29 784
e 102 438 6 785
e 102 636 49 786
e 103 633 1 790
e 103 391 1 792
e 104 538 17 797
e 104 575 7 798
e 104 180 7 799
e 104 520 49 800
e 105 481 1 801
e 105 563 2 802
e 105 322 1 803
e 105 295 1 804
e 105 470 1 805
e 105 537 2 807
e 105 586 1 808
e 105 632 1 809
e 106 596 38 810
e 106 122 42 811
e 106 383 39 812
e 106 180 12 813
e 106 477 43 814
e 106 478 20 815
e 106 577 5 817
e 107 616 2 818
e 107 201 1 819
e 107 263 1 824
e 108 262 15 826
e 108 122 29 828
e 108 156 28 829
e 108 386 45 830
e 108 412 6 831
e 109 440 2 832
e 109 121 1 833
e 110 496 1 835
e 110 563 1 837
e 110 369 2 838
e 111 382 1 843
e 111 455 30 844
e 111 496 1 845
e 111 509 11 846
e 112 241 1 848
e 112 487 1 851
e 112 510 1 852
e 113 619 35 853
e 113 626 25 854
e 113 385 15 856
e 113 336 34 857
e 113 196 46 858
e 114 600 1 860
e 115 355 47 862
e 115 548 2 863
e 115 184 1 864
e 115 349 1 865
e 115 472 1 866
e 115 498 1 867
e 116 621 2 869
e 116 636 1 870
e 116 521 2 871
e 116 402 1 872
e 116 134 1 873
e 116 202 1 875
e 116 234 1 876
e 116 526 2 877
e 116 565 1 878
e 117 156 47 882
e 117 417 1 884
e 117 569 1 886
e 118 347 1 888
e 118 471 3 890
e 119 379 1 893
e 119 483 2 896
e 120 163 44 899
e 120 424 1 901
e 120 513 2 903
e 120 598 1 905
e 121 550 1 906
e 121 312 2 907
e 121 162 2 908
e 121 462 1 909
e 122 338 12 910
e 122 407 29 911
e 122 284 7 912
e 122 213 34 913
e 122 327 42 914
e 122 391 4 915
e 123 371 1 917
e 124 416 2 922
e 124 400 1 923
e 124 420 1 925
e 125 269 5 928
e 125 561 4 929
e 125 403 5 930
e 125 391 30 931
e 125 142 25 932
e 125 197 19 933
e 126 529 1 938
e 126 154 2 939
e 126 559 1 942
e 126 592 1 943
e 127 222 1 947
e 128 480 1 949
e 128 566 1 950
e 128 350 1 951
e 128 287 2 952
e 128 324 1 953
e 130 564 2 958
e 130 512 1 959
e 130 593 1 960
e 130 469 1 961
e 130 231 1 962
e 130 287 1 963
e 130 289 1 964
e 130 297 41 965
e 130 408 1 967
e 131 515 1 969
e 131 269 1 970
e 131 253 1 971
e 131 384 1 972
e 132 148 1 974
e 132 245 1 975
e 132 502 2 976
e 132 186 1 977
e 132 250 3 979
e 132 619 2 981
e 134 598 1 989
e 134 457 1 992
e 135 372 1 995
e 136 592 1 999
e 136 432 1 1002
e 136 347 2 1004
e 137 189 1 1007
e 137 155 1 1009
e 137 196 30 1010
e 137 323 1 1011
e 137 345 1 1013
e 137 558 1 1016
e 138 503 49 1017
e 138 241 31 1018
e 138 512 16 1019
e 138 304 30 1020
e 138 206 41 1021
e 138 235 47 1022
e 139 353 3 1026
e 139 263 1 1027
e 140 208 1 1030
e 142 566 2 1040
e 142 613 1 1042
e 143 202 48 1043
e 143 548 44 1044
e 143 602 27 1045
e 143 163 15 1046
e 143 184 8 1047
e 143 251 41 1049
e 143 372 13 1050
e 143 373 47 1051
e 143 635 41 1052
e 144 579 1 1053
e 144 516 1 1054
e 144 239 1 1055
e 144 238 1 1056
e 144 428 1 1058
e 145 411 1 1059
e 145 520 1 1060
e 145 599 3 1061
e 145 497 1 1062
e 145 553 1 1064
e 146 465 1 1065
e 146 298 3 1066
e 146 389 3 1068
e 147 387 1 1069
e 147 471 1 1070
e 147 384 1 1071
e 147 308 13 1072
e 147 313 1 1073
e 147 451 1 1074
e 147 613 2 1076
e 148 515 2 1077
e 148 407 35 1079
e 148 559 2 1083
e 149 259 1 1088
e 150 254 1 1089
e 150 455 38 1090
e 150 159 2 1091
e 150 338 1 1093
e 151 250 7 1095
e 151 209 6 1096
e 151 157 18 1097
e 151 177 10 1098
e 151 437 6 1099
e 152 169 1 1100
e 152 554 1 1101
e 152 261 1 1102
e 153 631 1 1104
e 153 540 1 1108
e 154 180 38 1111
e 154 197 1 1112
e 154 230 1 1113
e 154 273 1 1114
e 154 274 1 1115
e 154 342 1 1116
e 155 499 2 1117
e 155 219 1 1118
e 155 246 2 1119
e 155 401 2 1120
e 155 545 1 1122
e 155 609 2 1123
e 155 627 1 1124
e 155 629 2 1125
e 156 505 10 1126
e 156 604 3 1127
e 156 214 47 1128
e 156 485 22 1129
e 156 196 6 1130
e 157 591 24 1132
e 157 536 43 1133
e 157 459 9 1134
e 157 216 41 1135
e 157 365 40 1136
e 157 244 14 1137
e 157 275 9 1138
e 157 380 20 1139
e 158 334 29 1142
e 158 386 2 1143
e 158 392 1 1144
e 159 430 1 1146
e 159 166 1 1148
e 159 215 1 1149
e 159 371 1 1151
e 159 381 1 1152
e 160 262 49 1153
e 160 412 5 1156
e 160 302 10 1157
e 160 216 22 1158
e 160 289 8 1159
e 160 595 23 1161
e 161 387 1 1162
e 162 287 1 1167
e 162 306 1 1172
e 163 185 8 1175
e 163 281 8 1176
e 163 183 31 1177
e 163 244 44 1178
e 163 322 25 1179
e 163 454 43 1180
e 163 528 28 1181
e 164 165 1 1182
e 164 279 1 1183
e 164 486 1 1184
e 165 373 1 1186
e 165 532 1 1187
e 165 415 2 1188
e 165 185 2 1189
e 165 381 2 1190
e 166 246 1 1192
e 166 362 1 1193
e 166 177 1 1195
e 166 499 2 1196
e 166 508 1 1197
e 167 557 1 1198
e 167 280 2 1199
e 167 224 1 1201
e 167 636 49 1202
e 168 568 1 1203
e 168 263 1 1204
e 168 323 1 1207
e 169 466 1 1212
e 170 492 2 1218
e 171 183 13 1223
e 172 359 2 1227
e 172 405 3 1229
e 172 417 1 1230
e 172 232 2 1231
e 173 345 2 1237
e 174 460 1 1239
e 174 235 1 1240
e 174 191 48 1241
e 174 449 2 1242
e 175 388 1 1244
e 175 273 1 1245
e 176 559 2 1251
e 176 279 1 1252
e 176 418 13 1255
e 177 550 2 1258
e 178 355 40 1262
e 178 369 1 1265
e 178 543 2 1266
e 178 611 1 1267
e 179 248 13 1268
e 179 401 48 1269
e 179 199 1 1271
e 179 210 7 1272
e 179 318 28 1273
e 179 329 16 1274
e 179 358 33 1275
e 179 510 21 1277
e 179 608 38 1278
e 180 362 21 1279
e 180 308 16 1280
e 180 191 40 1281
e 180 619 49 1283
e 181 454 1 1284
e 181 291 1 1285
e 181 288 3 1286
e 181 266 1 1288
e 181 297 32 1289
e 181 580 2 1290
e 182 271 2 1291
e 182 422 1 1292
e 182 301 1 1293
e 183 226 1 1295
e 183 297 17 1296
e 183 248 45 1297
e 183 343 39 1298
e 183 518 6 1300
e 184 315 1 1302
e 184 360 1 1304
e 184 474 1 1305
e 186 334 40 1308
e 186 632 1 1309
e 186 318 1 1310
e 186 488 1 1311
e 186 616 2 1313
e 187 473 7 1315
e 187 189 1 1316
e 188 323 1 1319
e 188 415 1 1322
e 188 503 1 1323
e 189 245 1 1325
e 189 409 1 1326
e 189 481 1 1327
e 190 572 1 1329
e 190 484 1 1330
e 190 541 1 1331
e 190 548 3 1332
e 191 305 20 1333
e 191 213 16 1334
e 191 365 43 1335
e 191 302 8 1336
e 191 195 1 1337
e 191 264 26 1338
e 192 293 1 1342
e 193 345 2 1345
e 193 255 1 1347
e 194 611 1 1350
e 194 430 1 1352
e 194 241 1 1353
e 194 380 1 1354
e 194 531 1 1355
e 195 531 4 1358
e 195 264 41 1360
e 195 281 21 1361
e 195 270 47 1362
e 195 290 12 1363
e 195 296 29 1364
e 195 459 28 1365
e 196 599 6 1366
e 196 462 17 1368
e 196 216 1 1369
e 196 270 48 1370
e 196 327 12 1371
e 198 302 10 1377
e 198 385 45 1378
e 199 428 1 1382
e 199 281 11 1383
e 200 414 1 1386
e 200 427 1 1387
e 201 593 2 1388
e 201 310 1 1389
e 201 529 1 1390
e 202 608 3 1392
e 202 348 1 1393
e 202 329 1 1394
e 202 349 1 1395
e 202 525 2 1396
e 202 547 1 1397
e 202 582 1 1398
e 203 367 1 1399
e 203 403 2 1400
e 203 221 1 1401
e 203 299 1 1402
e 204 334 7 1403
e 204 424 1 1404
e 204 528 2 1405
e 206 452 8 1410
e 206 634 39 1411
e 207 301 1 1414
e 207 248 10 1415
e 207 347 2 1416
e 207 466 1 1417
e 207 525 21 1418
e 207 622 1 1419
e 208 471 1 1420
e 208 383 1 1421
e 208 331 2 1422
e 208 591 2 1424
e 208 600 1 1425
e 208 631 2 1426
e 209 466 2 1427
e 209 609 1 1428
e 209 225 2 1430
e 209 229 1 1431
e 209 294 1 1432
e 209 535 1 1433
e 210 622 1 1434
e 210 601 1 1435
e 210 355 48 1436
e 211 347 2 1439
e 211 317 10 1441
e 211 393 9 1445
e 212 454 1 1448
e 212 458 1 1449
e 212 345 1 1450
e 212 238 1 1451
e 212 512 1 1452
e 213 541 1 1454
e 213 361 1 1455
e 214 318 10 1456
e 214 228 31 1457
e 214 451 4 1458
e 214 298 44 1459
e 214 267 31 1460
e 214 307 13 1461
e 214 455 18 1462
e 214 518 2 1463
e 215 255 2 1464
e 215 601 1 1465
e 215 330 1 1466
e 216 239 2 1467
e 216 594 44 1468
e 216 636 43 1469
e 216 290 1 1470
e 216 492 13 1471
e 217 368 2 1476
e 218 399 1 1479
e 218 307 1 1480
e 218 521 1 1481
e 218 621 1 1482
e 219 411 1 1484
e 219 257 1 1487
e 219 307 1 1488
e 219 368 1 1489
e 219 372 1 1490
e 219 478 1 1491
e 220 371 1 1497
e 220 622 1 1499
e 221 503 2 1501
e 221 236 12 1503
e 222 549 1 1504
e 222 454 1 1505
e 222 430 2 1506
e 222 317 8 1507
e 222 346 1 1508
e 223 227 2 1509
e 224 398 1 1517
e 224 447 1 1518
e 225 565 1 1520
e 225 480 1 1522
e 226 626 12 1524
e 226 611 12 1526
e 226 475 9 1527
e 226 604 33 1528
e 226 290 21 1530
e 226 579 45 1532
e 227 346 1 1533
e 227 567 1 1534
e 227 525 15 1535
e 227 305 1 1536
e 227 522 1 1537
e 228 633 42 1541
e 228 248 24 1542
e 228 365 37 1543
e 228 264 21 1544
e 228 298 4 1545
e 229 331 1 1547
e 229 352 1 1549
e 230 379 1 1553
e 231 372 2 1556
e 231 546 2 1557
e 231 562 1 1558
e 232 533 1 1559
e 232 443 1 1560
e 232 254 1 1561
e 233 594 1 1562
e 233 624 1 1563
e 233 265 2 1564
e 233 601 2 1565
e 233 336 4 1566
e 233 420 2 1567
e 233 527 2 1569
e 234 470 1 1570
e 234 305 2 1571
e 234 324 1 1572
e 234 538 1 1573
e 234 610 10 1574
e 235 327 1 1575
e 235 268 1 1576
e 235 625 1 1578
e 236 248 24 1579
e 236 485 13 1580
e 236 244 32 1581
e 236 569 15 1583
e 237 633 1 1587
e 238 505 48 1590
e 238 536 1 1591
e 239 264 10 1592
e 239 298 32 1594
e 239 485 18 1595
e 239 538 11 1596
e 239 575 27 1597
e 239 636 42 1599
e 240 420 1 1601
e 240 241 2 1602
e 240 630 17 1603
e 241 381 1 1604
e 241 382 1 1605
e 241 571 1 1606
e 241 379 1 1608
e 241 616 1 1609
e 242 411 1 1610
e 242 365 5 1613
e 242 569 2 1615
e 243 381 2 1616
e 243 383 1 1618
e 243 253 1 1619
e 243 264 23 1620
e 243 308 17 1621
e 243 372 1 1622
e 243 417 2 1623
e 243 470 1 1624
e 244 596 33 1625
e 244 340 1 1627
e 244 590 36 1628
e 244 636 34 1629
e 244 485 14 1630
e 244 332 39 1631
e 245 252 6 1632
e 245 420 2 1633
e 245 297 35 1634
e 245 273 1 1635
e 245 428 1 1636
e 245 510 1 1638
e 246 391 1 1639
e 246 488 1 1643
e 246 494 2 1644
e 246 553 1 1646
e 247 307 1 1647
e 247 273 1 1648
e 247 263 1 1650
e 247 531 1 1654
e 248 555 45 1655
e 248 632 30 1656
e 248 334 22 1658
e 249 414 2 1662
e 249 438 2 1663
e 249 452 28 1664
e 251 397 1 1668
e 252 388 37 1671
e 252 333 23 1672
e 252 458 35 1674
e 252 564 20 1675
e 252 617 3 1676
e 253 487 1 1677
e 253 633 1 1678
e 254 582 1 1680
e 254 618 1 1685
e 255 472 1 1686
e 255 305 1 1688
e 255 552 2 1689
e 255 624 2 1690
e 256 407 10 1691
e 256 379 2 1692
e 257 429 1 1693
e 257 342 1 1695
e 257 580 3 1696
e 258 414 1 1697
e 258 497 1 1698
e 258 629 1 1699
e 258 622 1 1700
e 259 636 19 1702
e 259 616 2 1703
e 259 365 14 1704
e 259 511 1 1705
e 260 596 37 1706
e 260 263 1 1708
e 260 320 27 1709
e 261 637 1 1712
e 261 471 1 1713
e 261 547 1 1714
e 261 635 3 1715
e 263 626 1 1718
e 263 334 34 1720
e 263 366 1 1721
e 263 490 1 1722
e 263 556 1 1723
e 263 602 1 1724
e 264 398 14 1725
e 264 505 7 1726
e 264 331 26 1727
e 264 332 27 1728
e 265 293 1 1729
e 265 634 47 1730
e 265 484 1 1731
e 266 638 1 1732
e 266 351 17 1733
e 266 528 1 1734
e 266 287 1 1735
e 266 321 1 1736
e 266 374 1 1737
e 267 331 1 1738
e 267 391 1 1739
e 267 288 1 1740
e 267 340 1 1741
e 267 385 4 1742
e 267 479 1 1743
e 268 504 2 1749
e 269 419 1 1750
e 269 486 1 1751
e 269 444 1 1752
e 269 530 2 1753
e 269 609 1 1754
e 270 414 16 1755
e 270 525 31 1756
e 270 537 1 1757
e 270 334 47 1758
e 270 405 7 1759
e 270 634 33 1761
e 271 462 1 1762
e 271 572 2 1763
e 272 450 1 1765
e 272 397 1 1766
e 272 407 16 1767
e 273 305 2 1769
e 273 420 1 1770
e 273 535 1 1772
e 275 568 1 1776
e 276 571 2 1779
e 276 623 1 1780
e 276 484 1 1783
e 276 600 1 1784
e 277 616 2 1785
e 277 345 1 1788
e 278 611 1 1793
e 278 551 1 1794
e 279 450 1 1797
e 279 504 1 1798
e 279 340 1 1800
e 279 403 1 1801
e 279 412 1 1802
e 280 294 1 1803
e 280 419 1 1804
e 280 503 1 1805
e 281 456 1 1807
e 281 510 32 1808
e 281 385 20 1810
e 281 520 33 1812
e 282 582 1 1813
e 282 455 36 1815
e 282 422 2 1817
e 283 503 1 1818
e 284 430 2 1822
e 285 565 1 1827
e 286 528 1 1833
e 287 350 1 1834
e 287 406 1 1835
e 287 549 1 1836
e 288 397 3 1837
e 288 346 1 1838
e 288 398 2 1839
e 288 426 2 1841
e 288 427 1 1842
e 288 453 1 1843
e 288 466 2 1844
e 288 480 1 1845
e 288 504 1 1846
e 289 596 40 1847
e 290 589 49 1848
e 290 393 25 1851
e 290 565 5 1853
e 291 565 1 1855
e 293 550 1 1863
e 293 439 2 1864
e 293 369 1 1865
e 294 485 30 1866
e 294 513 2 1867
e 294 484 1 1873
e 294 618 1 1874
e 295 575 10 1875
e 295 361 1 1878
e 295 317 11 1879
e 296 531 2 1881
e 297 474 36 1886
e 297 302 30 1887
e 297 418 40 1889
e 298 506 37 1890
e 298 632 4 1891
e 298 525 24 1892
e 298 436 12 1894
e 300 373 1 1895
e 300 380 1 1898
e 300 470 1 1899
e 301 510 1 1902
e 302 358 21 1904
e 302 456 33 1905
e 302 634 18 1906
e 302 523 11 1907
e 302 489 43 1908
e 302 505 49 1909
e 303 379 1 1910
e 303 598 1 1911
e 304 569 1 1916
e 304 464 2 1920
e 306 628 2 1924
e 306 562 2 1925
e 306 364 1 1926
e 306 381 2 1927
e 306 554 2 1928
e 308 452 14 1930
e 308 521 4 1932
e 308 590 6 1933
e 309 478 1 1935
e 310 455 3 1937
e 310 558 2 1938
e 310 587 2 1939
e 310 496 2 1941
e 311 369 1 1945
e 311 378 1 1946
e 313 337 1 1952
e 313 637 2 1954
e 314 438 1 1959
e 315 496 1 1961
e 315 551 2 1962
e 315 566 1 1964
e 316 340 1 1965
e 317 392 7 1968
e 317 378 25 1969
e 317 473 17 1970
e 317 479 7 1971
e 318 459 1 1973
e 318 634 19 1974
e 318 463 35 1976
e 318 515 2 1977
e 319 504 1 1980
e 319 616 1 1981
e 320 459 20 1982
e 320 446 39 1983
e 320 387 9 1984
e 320 473 44 1986
e 320 570 22 1988
e 320 578 12 1989
e 323 379 2 1998
e 323 401 1 1999
e 323 445 1 2000
e 323 505 29 2001
e 324 599 2 2002
e 324 388 1 2004
e 324 430 2 2005
e 324 551 1 2008
e 324 575 3 2010
e 325 415 36 2011
e 325 633 13 2012
e 325 426 4 2013
e 325 473 38 2016
e 325 488 10 2017
e 325 500 5 2018
e 326 610 9 2020
e 327 565 1 2022
e 328 334 23 2026
e 329 504 2 2028
e 329 415 2 2030
e 330 481 1 2035
e 331 352 1 2036
e 331 599 37 2037
e 331 366 1 2038
e 331 491 1 2039
e 331 549 1 2040
e 332 604 13 2042
e 332 525 13 2043
e 332 555 26 2044
e 333 478 1 2045
e 334 470 39 2047
e 334 509 38 2048
e 335 455 49 2049
e 336 536 24 2054
e 336 595 19 2055
e 337 543 1 2056
e 337 585 2 2058
e 338 384 1 2062
e 338 587 3 2064
e 339 596 43 2065
e 339 550 1 2068
e 339 598 2 2069
e 340 534 1 2071
e 341 412 1 2074
e 342 594 1 2077
e 343 355 8 2078
e 343 638 1 2079
e 343 513 1 2080
e 344 446 2 2081
e 344 561 2 2082
e 344 543 1 2083
e 344 376 1 2084
e 344 548 2 2085
e 344 571 1 2086
e 345 517 1 2088
e 347 626 1 2092
e 347 390 1 2093
e 347 532 1 2094
e 347 582 1 2095
e 347 597 1 2096
e 348 631 1 2099
e 351 537 16 2102
e 351 429 6 2103
e 351 442 39 2104
e 351 390 36 2105
e 351 471 39 2106
e 352 380 1 2109
e 352 545 1 2110
e 353 448 5 2111
e 353 576 33 2114
e 353 481 23 2115
e 353 599 9 2116
e 355 502 47 2120
e 355 557 36 2121
e 356 568 1 2122
e 357 470 1 2124
e 358 397 1 2127
e 358 470 1 2129
e 358 423 1 2132
e 359 613 1 2133
e 360 387 1 2137
e 360 398 1 2138
e 361 628 1 2141
e 362 600 1 2142
e 363 397 2 2149
e 364 584 1 2151
e 364 631 1 2152
e 364 369 2 2153
e 365 538 40 2157
e 366 480 1 2160
e 367 387 1 2165
e 368 503 1 2168
e 368 454 1 2169
e 368 447 2 2170
e 368 467 2 2171
e 368 574 1 2172
e 369 384 3 2174
e 369 453 2 2175
e 369 396 1 2176
e 370 474 1 2178
e 371 633 1 2180
e 371 488 1 2181
e 371 563 1 2182
e 372 625 1 2183
e 372 474 1 2184
e 372 501 1 2185
e 372 574 1 2186
e 373 472 2 2188
e 373 497 3 2190
e 374 467 1 2192
e 374 382 1 2193
e 374 400 1 2194
e 374 492 1 2195
e 375 388 2 2196
e 375 436 43 2199
e 375 551 2 2200
e 376 584 1 2201
e 376 631 1 2202
e 376 480 1 2203
e 376 529 1 2205
e 377 385 32 2208
e 378 499 2 2210
e 378 423 1 2211
e 378 550 1 2213
e 378 570 3 2214
e 380 546 1 2217
e 382 416 1 2219
e 382 465 1 2220
e 383 616 1 2221
e 383 466 1 2222
e 383 447 1 2223
e 383 514 1 2224
e 384 483 2 2225
e 384 393 5 2226
e 384 484 1 2227
e 384 617 1 2228
e 385 479 27 2230
e 385 525 8 2231
e 385 533 13 2232
e 386 432 1 2234
e 386 460 1 2235
e 386 492 1 2236
e 387 402 1 2237
e 387 566 2 2238
e 387 413 1 2239
e 387 426 1 2240
e 388 400 1 2243
e 388 439 1 2244
e 390 592 1 2247
e 391 430 2 2248
e 391 418 30 2249
e 392 467 1 2252
e 392 618 1 2253
e 393 509 18 2254
e 393 613 30 2255
e 393 538 11 2256
e 393 636 2 2257
e 393 589 4 2258
e 394 585 1 2260
e 394 510 1 2261
e 396 613 1 2263
e 396 470 1 2264
e 398 471 1 2269
e 399 534 2 2272
e 401 550 1 2273
e 401 610 37 2277
e 402 415 1 2278
e 404 566 2 2279
e 404 562 2 2280
e 404 413 1 2281
e 404 567 1 2282
e 405 407 1 2283
e 405 567 1 2285
e 407 511 11 2288
e 407 459 14 2289
e 409 515 1 2294
e 409 509 14 2295
e 411 547 1 2300
e 411 446 1 2301
e 411 431 1 2302
e 412 520 1 2303
e 412 631 1 2304
e 413 582 1 2305
e 413 603 1 2307
e 413 630 1 2308
e 414 438 1 2309
e 414 631 1 2310
e 414 452 27 2311
e 414 486 1 2312
e 414 497 1 2313
e 414 514 1 2314
e 415 441 1 2317
e 415 485 43 2318
e 416 479 1 2319
e 416 471 1 2320
e 417 464 1 2322
e 418 463 48 2324
e 419 503 1 2326
e 419 456 1 2327
e 420 558 1 2329
e 421 524 2 2330
e 421 482 20 2331
e 421 630 23 2333
e 422 595 10 2334
e 422 491 1 2335
e 422 621 1 2336
e 424 633 1 2337
e 424 630 35 2338
e 424 492 2 2339
e 424 444 1 2341
e 424 544 1 2342
e 425 464 1 2343
e 425 594 1 2344
e 426 516 1 2348
e 427 509 32 2349
e 427 633 1 2350
e 427 587 1 2352
e 429 633 1 2355
e 430 606 1 2357
e 430 520 1 2358
e 430 561 2 2360
e 431 452 9 2361
e 431 585 1 2363
e 432 630 30 2364
e 432 587 1 2365
e 432 517 2 2367
e 433 477 1 2368
e 434 601 2 2369
e 436 610 8 2372
e 436 636 38 2373
e 436 444 9 2374
e 438 461 1 2378
e 438 589 1 2379
e 440 492 2 2384
e 440 634 3 2385
e 440 476 1 2388
e 440 631 1 2389
e 442 610 6 2391
e 442 600 45 2392
e 442 598 45 2395
e 443 613 1 2398
e 443 630 40 2399
e 444 515 2 2401
e 445 484 1 2402
e 447 478 1 2405
e 447 491 1 2406
e 448 528 2 2407
e 449 543 1 2410
e 450 510 1 2411
e 450 493 1 2412
e 450 538 5 2413
e 450 627 1 2414
e 450 636 33 2415
e 451 502 1 2416
e 451 582 1 2417
e 452 586 27 2418
e 452 517 6 2419
e 453 580 1 2420
e 454 599 3 2423
e 454 634 24 2424
e 454 456 1 2425
e 454 499 2 2426
e 454 538 18 2427
e 455 615 26 2428
e 456 602 1 2430
e 457 492 2 2431
e 457 490 1 2432
e 458 529 1 2436
e 459 481 2 2437
e 459 460 2 2438
e 463 625 39 2442
e 464 493 1 2447
e 466 513 1 2449
e 467 613 1 2450
e 469 623 1 2457
e 471 547 1 2458
e 471 494 1 2459
e 473 593 16 2460
e 473 538 24 2461
e 474 602 2 2462
e 477 582 1 2463
e 478 498 1 2464
e 478 582 1 2465
e 479 567 1 2466
e 479 638 2 2467
e 480 622 1 2468
e 480 637 1 2469
e 482 631 1 2473
e 489 584 1 2479
e 489 603 1 2480
e 491 625 2 2482
e 492 553 1 2484
e 493 623 1 2487
e 494 584 1 2488
e 496 536 1 2491
e 496 551 1 2492
e 496 601 1 2493
e 498 568 2 2495
e 499 598 1 2498
e 500 598 2 2499
e 503 575 12 2504
e 503 557 1 2505
e 503 618 2 2506
e 505 550 4 2508
e 505 536 35 2509
e 506 623 1 2512
e 509 527 23 2514
e 509 558 5 2515
e 511 556 2 2518
e 511 573 1 2519
e 513 575 24 2520
e 515 637 1 2523
e 515 561 1 2524
e 516 560 1 2525
e 516 613 1 2526
e 517 627 1 2527
e 518 565 1 2529
e 519 557 1 2531
e 519 628 1 2532
e 522 631 1 2534
e 528 539 1 2540
e 530 604 10 2542
e 530 580 1 2543
e 531 545 1 2545
e 531 542 1 2547
e 531 587 2 2548
e 531 602 2 2549
e 533 578 2 2550
e 533 602 1 2551
e 534 583 1 2552
e 535 601 1 2553
e 537 639 1 2557
e 542 631 1 2559
e 543 568 1 2560
e 543 557 1 2561
e 543 601 2 2562
e 545 599 21 2563
e 548 558 1 2567
e 548 560 2 2568
e 550 564 2 2569
e 551 562 1 2570
e 551 576 1 2571
e 552 573 1 2574
e 553 607 1 2575
e 553 610 9 2576
e 557 565 1 2579
e 558 563 1 2580
e 558 564 1 2581
e 558 637 2 2582
e 560 595 39 2583
e 560 608 2 2584
e 560 593 1 2585
e 561 616 1 2587
e 562 630 26 2588
e 568 572 2 2589
e 568 633 2 2590
e 569 591 1 2591
e 569 576 2 2592
e 573 629 2 2595
e 574 598 1 2596
e 575 632 24 2598
e 580 638 1 2602
e 583 611 1 2603
e 583 633 1 2604
e 585 608 1 2605
e 585 592 1 2606
e 585 607 1 2607
e 586 603 2 2608
e 588 595 14 2610
e 588 611 1 2611
e 589 604 45 2612
e 589 594 1 2613
e 594 612 1 2614
e 597 633 1 2615
e 598 609 1 2617
e 598 632 1 2618
e 599 637 13 2619
e 599 615 47 2620
e 601 633 1 2621
e 603 614 1 2622
e 606 618 2 2623
e 609 639 1 2624
e 611 629 1 2625
e 611 614 1 2626
e 613 628 1 2627
e 622 631 1 2629
e 630 639 37 2630
